# bi10_0.6.wvf
# "Space-frequency balance in biorthogonal wavelets",
#  DM Monro and BG Sherlock,
#   IEEE International Conference on Image Processing, 1997, Vol.1, pp.624-627. 

-4 5
  0.00148935322206691142
 -0.00164254375992904504
 -0.10332518305081681009
  0.08971751499313430911
  0.72086763959554478465
  0.72086763959554478465
  0.08971751499313430911
 -0.10332518305081681009
 -0.00164254375992904504
  0.00148935322206691142
-4 5
  0.01149234097777374064
  0.01267440972385465263
 -0.08269937568133681194
  0.09580271839428640412
  0.66983668795851691868
  0.66983668795851691868
  0.09580271839428640412
 -0.08269937568133681194
  0.01267440972385465263
  0.01149234097777374064
