# bi10_0.1.4.wvf
# "Space-frequency balance in biorthogonal wavelets",
# DM Monro and BG Sherlock,
# IEEE International Conference on Image Processing, 1997, Vol.1, pp.624-627. 
 -4 5
  0.00041310263253192808
 -0.00045775143465372474
 -0.06595840669687205726
  0.06303697877021728624
  0.71007285772877637431
  0.71007285772877637431
  0.06303697877021728624
 -0.06595840669687205726
 -0.00045775143465372474
  0.00041310263253192808
-4 5
  0.00546527177052236190
  0.00605596720213531347
 -0.06169893449866645230
  0.06459642036786167330
  0.69268805653124221333
  0.69268805653124221333
  0.06459642036786167330
 -0.06169893449866645230
  0.00605596720213531347
  0.00546527177052236190 
