# bi10_0.1.3.wvf
# "Space-frequency balance in biorthogonal wavelets",
# DM Monro and BG Sherlock,
# IEEE International Conference on Image Processing, 1997, Vol.1, pp.624-627. 

  -4 5
  0.00048914512574589814
 -0.00054790660876982992
 -0.06895301205358829455
  0.06571358219460479710
  0.71040497234200739030
  0.71040497234200739030
  0.06571358219460479710
 -0.06895301205358829455
 -0.00054790660876982992
  0.00048914512574589814
-4 5
  0.00589418604381763966
  0.00660226038601932283
 -0.06397703605623815404
  0.06718705415408697534
  0.69140031684540925738
  0.69140031684540925738
  0.06718705415408697534
 -0.06397703605623815404
  0.00660226038601932283
  0.00589418604381763966
