# bi10_0.5.wvf
# "Space-frequency balance in biorthogonal wavelets",
#  DM Monro and BG Sherlock,
#   IEEE International Conference on Image Processing, 1997, Vol.1, pp.624-627. 
-4 5
  0.00203855730607329678
 -0.00228474468525556368
 -0.11244693982417129641
  0.09458773750475969744
  0.72521217069859400528
  0.72521217069859400528
  0.09458773750475969744
 -0.11244693982417129641
 -0.00228474468525556368
  0.00203855730607329678
-4 5
  0.01279402113757555082
  0.01433909741464588043
 -0.08502152256434572508
  0.10202197342965900473
  0.66297321195556024875
  0.66297321195556024875
  0.10202197342965900473
 -0.08502152256434572508
  0.01433909741464588043
  0.01279402113757555082
