# bi10_0.4.wvf
# "Space-frequency balance in biorthogonal wavelets",
#  DM Monro and BG Sherlock,
#   IEEE International Conference on Image Processing, 1997, Vol.1, pp.624-627. 

-4 5
  0.00306053701894157129
 -0.00353601946978523594
 -0.12489113878434887628
  0.09950127001188488474
  0.73297213222330770410
  0.73297213222330770410
  0.09950127001188488474
 -0.12489113878434887628
 -0.00353601946978523594
  0.00306053701894157129
-4 5
  0.01430199609132210004
  0.01652394214568157771
 -0.08612478746164120569
  0.10981349012078207850
  0.65259214047695046634
  0.65259214047695046634
  0.10981349012078207850
 -0.08612478746164120569
  0.01652394214568157771
  0.01430199609132210004
