# bi10_0.9.wvf
# "Space-frequency balance in biorthogonal wavelets",
#  DM Monro and BG Sherlock,
#   IEEE International Conference on Image Processing, 1997, Vol.1, pp.624-627. 

-4 5
  0.00079287849193655378
 -0.00087139467506025677
 -0.08457297510651461125
  0.07770061590241686411
  0.71405765638722151767
  0.71405765638722151767
  0.07770061590241686411
 -0.08457297510651461125
 -0.00087139467506025677
  0.00079287849193655378
-4 5
  0.00844445629118106833
  0.00928068338433765162
 -0.07415279148720922697
  0.08089411310648708664
  0.68264032007829844595
  0.68264032007829844595
  0.08089411310648708664
 -0.07415279148720922697
  0.00928068338433765162
  0.00844445629118106833
