# bi10_0.3.wvf
# "Space-frequency balance in biorthogonal wavelets",
#  DM Monro and BG Sherlock,
#   IEEE International Conference on Image Processing, 1997, Vol.1, pp.624-627. 

-4 5
  0.01540258210158373942
 -0.02545057374299002778
 -0.18431212800326227108
  0.09462870877527936042
  0.80683819224248409796
  0.80683819224248409796
  0.09462870877527936042
 -0.18431212800326227108
 -0.02545057374299002778
  0.01540258210158373942
-4 5
  0.01642854232426367925
  0.02714582692407876280
 -0.05744567934005647553
  0.12898278147243691372
  0.59199530961927726569
  0.59199530961927726569
  0.12898278147243691372
 -0.05744567934005647553
  0.02714582692407876280
  0.01642854232426367925
