# bi10_0.8.wvf
# "Space-frequency balance in biorthogonal wavelets",
#  DM Monro and BG Sherlock,
#   IEEE International Conference on Image Processing, 1997, Vol.1, pp.624-627. 

-4 5
  0.00098410633556352597
 -0.00109044064603618920
 -0.08983436055150152699
  0.08145679857422284675
  0.71559067728775138661
  0.71559067728775138661
  0.08145679857422284675
 -0.08983436055150152699
 -0.00109044064603618920
  0.00098410633556352597
-4 5
  0.00929952610375628375
  0.01030435521645497489
 -0.07718405939668601667
  0.08536770719602562729
  0.67931925225354417019
  0.67931925225354417019
  0.08536770719602562729
 -0.07718405939668601667
  0.01030435521645497489
  0.00929952610375628375
