# bi10_0.2.wvf k=2
# "Space-frequency balance in biorthogonal wavelets",
#  DM Monro and BG Sherlock,
#   IEEE International Conference on Image Processing, 1997, Vol.1, pp.624-627. 

-4 5
  0.02557128835241218034
 -0.04395241580644732721
 -0.22348182313622619311
  0.10305837458320861455
  0.84591135738014777701
  0.84591135738014777701
  0.10305837458320861455
 -0.22348182313622619311
 -0.04395241580644732721
  0.02557128835241218034
-4 5
  0.02003665343334040325
  0.03443938025081101639
 -0.04796389417151221413
  0.13779131822862350498
  0.56280332325873727584
  0.56280332325873727584
  0.13779131822862350498
 -0.04796389417151221413
  0.03443938025081101639
  0.02003665343334040325
