# bi10_0.1.5.wvf
# "Space-frequency balance in biorthogonal wavelets",
# DM Monro and BG Sherlock,
# IEEE International Conference on Image Processing, 1997, Vol.1, pp.624-627. 
-4 5
  0.00038596578062981377
 -0.00042899598354575428
 -0.06350244375612967840
  0.06081082457762105459
  0.70984143038142466509
  0.70984143038142466509
  0.06081082457762105459
 -0.06350244375612967840
 -0.00042899598354575428
  0.00038596578062981377
-4 5
  0.00507636158227153800
  0.00564231037856997419
 -0.05960002329954598027
  0.06227130587514601717
  0.69371682683665336633
  0.69371682683665336633
  0.06227130587514601717
 -0.05960002329954598027
  0.00564231037856997419
  0.00507636158227153800
