# bi10_1.0.wvf
# "Space-frequency balance in biorthogonal wavelets",
#  DM Monro and BG Sherlock,
#   IEEE International Conference on Image Processing, 1997, Vol.1, pp.624-627. 

-4 5
  0.00069643980062297566
 -0.00077004592428797701
 -0.08006815135185034460
  0.07438733743971384649
  0.71286120103580152829
  0.71286120103580152829
  0.07438733743971384649
 -0.08006815135185034460
 -0.00077004592428797701
  0.00069643980062297566
-4 5
  0.00768040308921047465
  0.00849213828739385501
 -0.07141651302798536494
  0.07700749238303286615
  0.68534326064144324153
  0.68534326064144324153
  0.07700749238303286615
 -0.07141651302798536494
  0.00849213828739385501
  0.00768040308921047465
