# bi10_0.7.wvf
# "Space-frequency balance in biorthogonal wavelets",
#  DM Monro and BG Sherlock,
#   IEEE International Conference on Image Processing, 1997, Vol.1, pp.624-627. 

  -4 5
  0.00115646115743594743
 -0.00126954979793106717
 -0.09583767049946402550
  0.08526428521784817915
  0.71779325492211087933
  0.71779325492211087933
  0.08526428521784817915
 -0.09583767049946402550
 -0.00126954979793106717
  0.00115646115743594743
-4 5
  0.01031436225581550126
  0.01132298861354853747
 -0.07990461902243113645
  0.09017097806544897842
  0.67520307146071323334
  0.67520307146071323334
  0.09017097806544897842
 -0.07990461902243113645
  0.01132298861354853747
  0.01031436225581550126
