# bi10_0.1.1.wvf
# "Space-frequency balance in biorthogonal wavelets",
# DM Monro and BG Sherlock,
# IEEE International Conference on Image Processing, 1997, Vol.1, pp.624-627. 

-4 5
  0.00060036737320655364
 -0.00066206213116605875
 -0.07602973018172860808
  0.07108037734460825874
  0.71211782859507988253
  0.71211782859507988253
  0.07108037734460825874
 -0.07602973018172860808
 -0.00066206213116605875
  0.00060036737320655364
-4 5
  0.00704020361564205999
  0.00776366674411429255
 -0.06885037965539859972
  0.07373140360790567116
  0.68742188706083162675
  0.68742188706083162675
  0.07373140360790567116
 -0.06885037965539859972
  0.00776366674411429255
  0.00704020361564205999
