# bi10_0.1.2.wvf
# "Space-frequency balance in biorthogonal wavelets",
# DM Monro and BG Sherlock,
# IEEE International Conference on Image Processing, 1997, Vol.1, pp.624-627. 

-4 5
  0.00052003625015826528
 -0.00057569032047226148
 -0.07227088051384171485
  0.06840832588898124178
  0.71102498969517458072
  0.71102498969517458072
  0.06840832588898124178
 -0.07227088051384171485
 -0.00057569032047226148
  0.00052003625015826528
-4 5
  0.00644241696089120630
  0.00713188183266582395
 -0.06637190497784131726
  0.07019271740369534274
  0.68971167015368395337
  0.68971167015368395337
  0.07019271740369534274
 -0.06637190497784131726
  0.00713188183266582395
  0.00644241696089120630
